(assert (forall ((q61 (_ BitVec 10)) (q62 (_ BitVec 10)) (q63 (_ BitVec 10)) (q64 (_ BitVec 10)) (q65 (_ BitVec 10)) (q66 (_ BitVec 10)) (q67 (_ BitVec 10)) (q68 (_ BitVec 12))) (distinct q68 (bvneg q68))))
(check-sat)
